unknown
(model
; cardinality of BoundSet is 2
(declare-sort BoundSet 0)
; rep: @uc_BoundSet_0
; rep: @uc_BoundSet_1
; cardinality of UnboundSet is 1
(declare-sort UnboundSet 0)
(declare-fun groundTerm_3 () UnboundSet)
(define-fun IsStanding ((BOUND_VARIABLE_400 BoundSet)) Bool true)
(define-fun IsSitting ((BOUND_VARIABLE_400 BoundSet)) Bool false)
(define-fun IsRiding ((BOUND_VARIABLE_413 BoundSet) (BOUND_VARIABLE_414 BoundSet)) Bool false)
(define-fun IsOnWave ((BOUND_VARIABLE_400 BoundSet)) Bool false)
)
sat
(model
; cardinality of BoundSet is 1
(declare-sort BoundSet 0)
; rep: @uc_BoundSet_0
; cardinality of UnboundSet is 1
(declare-sort UnboundSet 0)
(declare-fun groundTerm_5 () UnboundSet)
(define-fun IsStanding ((BOUND_VARIABLE_430 BoundSet)) Bool true)
(define-fun IsSitting ((BOUND_VARIABLE_430 BoundSet)) Bool false)
(define-fun IsRiding ((BOUND_VARIABLE_439 BoundSet) (BOUND_VARIABLE_440 BoundSet)) Bool false)
(define-fun IsOnWave ((BOUND_VARIABLE_430 BoundSet)) Bool false)
)
